
<<< setup


<<< generate

Version identifier: 12.10.0.0 | 2019-11-26 | 843d4de2ae
CPXPARAM_TimeLimit                               1200
Tried aggregator 3 times.
MIP Presolve eliminated 5170431 rows and 2933798 columns.
MIP Presolve modified 427362 coefficients.
Aggregator did 679 substitutions.
Reduced MIP has 71940 rows, 77073 columns, and 474901 nonzeros.
Reduced MIP has 77023 binaries, 0 generals, 0 SOSs, and 0 indicators.
Presolve time = 7.94 sec. (4595.28 ticks)
Found incumbent of value 2841.000000 after 12.28 sec. (6083.42 ticks)
Probing fixed 2869 vars, tightened 0 bounds.
Probing time = 29.38 sec. (5940.79 ticks)
Tried aggregator 2 times.
Detecting symmetries...
MIP Presolve eliminated 2737 rows and 2869 columns.
Aggregator did 16 substitutions.
Reduced MIP has 69187 rows, 74188 columns, and 455988 nonzeros.
Reduced MIP has 74138 binaries, 0 generals, 0 SOSs, and 0 indicators.
Presolve time = 0.70 sec. (352.88 ticks)
Probing fixed 44 vars, tightened 0 bounds.
Probing time = 2.95 sec. (522.10 ticks)
Clique table members: 255073.
MIP emphasis: balance optimality and feasibility.
MIP search method: dynamic search.
Parallel mode: deterministic, using up to 4 threads.
Root relaxation solution time = 1.47 sec. (1230.41 ticks)

        Nodes                                         Cuts/
   Node  Left     Objective  IInf  Best Integer    Best Bound    ItCnt     Gap

*     0+    0                         2841.0000   129283.0000              --- 
      0     0    72544.0000   521     2841.0000    72544.0000     5077     --- 
*     0+    0                        25517.0000    72544.0000           184.30%
      0     0    72544.0000   521    25517.0000      Cuts: 16     5136  184.30%
      0     0    72544.0000   521    25517.0000    Cuts: 5836     8930  184.30%
      0     0    72544.0000   521    25517.0000      Cuts: 64     9492  184.30%
*     0+    0                        26435.0000    72544.0000           174.42%
*     0+    0                        31090.0000    72544.0000           133.34%
*     0+    0                        49553.0000    72544.0000            46.40%
      0     0        cutoff          49553.0000    72544.0000     9492   46.40%
      0     0    72544.0000   521    49553.0000    Cuts: 6411    13682   46.40%
Heuristic still looking.
      0     2    72544.0000   145    49553.0000    72544.0000    13682   46.40%
Elapsed time = 162.36 sec. (82922.15 ticks, tree = 0.02 MB, solutions = 5)
      1     3    72544.0000   264    49553.0000    72544.0000    22373   46.40%
      2     3    72544.0000   289    49553.0000    72544.0000    20387   46.40%
      3     4    72544.0000   315    49553.0000    72544.0000    25274   46.40%
      4     5    72544.0000   341    49553.0000    72544.0000    37138   46.40%
      5     4    72544.0000   275    49553.0000    72544.0000    23568   46.40%
      6     6    72544.0000   366    49553.0000    72544.0000    39061   46.40%
      7     7    72544.0000   384    49553.0000    72544.0000    46839   46.40%
      8    10    72544.0000   367    49553.0000    72544.0000    58873   46.40%
     11    11    72544.0000   426    49553.0000    72544.0000    67340   46.40%
     15    12    72544.0000   397    49553.0000    72544.0000    70947   46.40%
Elapsed time = 195.06 sec. (98087.68 ticks, tree = 0.15 MB, solutions = 5)
     17     9    72544.0000   388    49553.0000    72544.0000    60401   46.40%
     20    18    72544.0000   418    49553.0000    72544.0000    90062   46.40%
     22    19    72544.0000   348    49553.0000    72544.0000    90811   46.40%
     25    22    72544.0000   332    49553.0000    72544.0000   106791   46.40%
     27    23    72544.0000   291    49553.0000    72544.0000   108332   46.40%
     28    13    72544.0000   348    49553.0000    72544.0000    87145   46.40%
     32    27    72544.0000   363    49553.0000    72544.0000   152403   46.40%
     34    36    72544.0000   360    49553.0000    72544.0000   171998   46.40%
     36    37    72544.0000   338    49553.0000    72544.0000   176053   46.40%
     39    25    72544.0000   341    49553.0000    72544.0000   150889   46.40%
Elapsed time = 243.44 sec. (113171.57 ticks, tree = 0.37 MB, solutions = 5)
     40    38    72544.0000   333    49553.0000    72544.0000   199251   46.40%
     42    39    72544.0000   383    49553.0000    72544.0000   195033   46.40%
     43    39    72544.0000   395    49553.0000    72544.0000   212548   46.40%
     44    40    72544.0000   391    49553.0000    72544.0000   211406   46.40%
     45    41    72544.0000   257    49553.0000    72544.0000   221244   46.40%
     46    48    72544.0000   284    49553.0000    72544.0000   258428   46.40%
     48    50    72544.0000   263    49553.0000    72544.0000   265909   46.40%
     49    51    72544.0000   267    49553.0000    72544.0000   271054   46.40%
     51    53    72544.0000   276    49553.0000    72544.0000   275531   46.40%
     57    58    72544.0000   228    49553.0000    72544.0000   285828   46.40%
Elapsed time = 343.53 sec. (134459.90 ticks, tree = 6.60 MB, solutions = 5)
     59    59    72544.0000   240    49553.0000    72544.0000   290812   46.40%
     61    50    72544.0000   358    49553.0000    72544.0000   271935   46.40%
     67    53    72544.0000   370    49553.0000    72544.0000   267459   46.40%
     71    65    72544.0000   252    49553.0000    72544.0000   301676   46.40%
     77    55    72544.0000   301    49553.0000    72544.0000   272698   46.40%
     85    78    72544.0000   332    49553.0000    72544.0000   341435   46.40%
     87    70    72544.0000   299    49553.0000    72544.0000   306571   46.40%
     98    70    72544.0000   326    49553.0000    72544.0000   326160   46.40%
    101    75    72544.0000   275    49553.0000    72544.0000   309855   46.40%
    107    86    72544.0000   361    49553.0000    72544.0000   356174   46.40%
Elapsed time = 395.72 sec. (146868.45 ticks, tree = 8.40 MB, solutions = 5)
    117    91    72544.0000   167    49553.0000    72544.0000   363358   46.40%
    137    95    72544.0000   206    49553.0000    72544.0000   365661   46.40%
    155   111    72544.0000   284    49553.0000    72544.0000   404696   46.40%
    163    98    72544.0000   161    49553.0000    72544.0000   369748   46.40%
    176    79    72544.0000   322    49553.0000    72544.0000   363371   46.40%
    195   125    72544.0000   180    49553.0000    72544.0000   415836   46.40%
    240   103    72544.0000   177    49553.0000    72544.0000   374842   46.40%
    281   120    72544.0000   204    49553.0000    72544.0000   410125   46.40%
    311   155    72544.0000   306    49553.0000    72544.0000   465316   46.40%
    335   149    72544.0000   182    49553.0000    72544.0000   450066   46.40%
Elapsed time = 421.41 sec. (157303.54 ticks, tree = 18.31 MB, solutions = 5)
    353   159    infeasible          49553.0000    72544.0000   472963   46.40%
    395   121    infeasible          49553.0000    72544.0000   418130   46.40%
    461   167    72544.0000    44    49553.0000    72544.0000   478139   46.40%
    522   170    infeasible          49553.0000    72544.0000   480395   46.40%
    574   153    72544.0000   159    49553.0000    72544.0000   475957   46.40%
    631   179    72544.0000    45    49553.0000    72544.0000   484179   46.40%
    676   180    infeasible          49553.0000    72544.0000   496790   46.40%
    732   158    72544.0000   141    49553.0000    72544.0000   482743   46.40%
    786   181    72544.0000    45    49553.0000    72544.0000   498927   46.40%
    840   191    infeasible          49553.0000    72544.0000   515416   46.40%
Elapsed time = 443.69 sec. (167085.28 ticks, tree = 19.56 MB, solutions = 5)
    904   159    72544.0000   146    49553.0000    72544.0000   487505   46.40%
*   947+  178                        51941.0000    72544.0000            39.67%
    978   197    72544.0000   109    51941.0000    72544.0000   552369   39.67%
   1023   197    72544.0000    67    51941.0000    72544.0000   538995   39.67%
   1090   207    72544.0000    56    51941.0000    72544.0000   566320   39.67%
   1134   195    72544.0000    67    51941.0000    72544.0000   541086   39.67%
   1189   197    72544.0000    51    51941.0000    72544.0000   541659   39.67%
   1227   196    72544.0000    84    51941.0000    72544.0000   543215   39.67%
   1296   211    72544.0000    54    51941.0000    72544.0000   587416   39.67%
   1352   211    72544.0000    60    51941.0000    72544.0000   588218   39.67%
   1418   218    72544.0000   121    51941.0000    72544.0000   601901   39.67%
Elapsed time = 466.91 sec. (176773.88 ticks, tree = 21.63 MB, solutions = 6)
*  1447+  210                        66216.0000    72544.0000             9.56%
*  1448+  188                        72544.0000    72544.0000             0.00%
   1462   222    72544.0000    46    72544.0000    72544.0000   602912    0.00%
   1504   223    72544.0000    25    72544.0000    72544.0000   603731    0.00%
   1521   219    72544.0000    30    72544.0000    72544.0000   604454    0.00%

Implied bound cuts applied:  217
Flow cuts applied:  5
Mixed integer rounding cuts applied:  806

Root node processing (before b&c):
  Real time             =  160.16 sec. (82237.51 ticks)
Parallel b&c, 4 threads:
  Real time             =  312.44 sec. (97840.79 ticks)
  Sync time (average)   =   54.45 sec.
  Wait time (average)   =    0.00 sec.
                          ------------
Total (root+branch&cut) =  472.59 sec. (180078.30 ticks)

<<< solve


OBJECTIVE: 72544

<<< post process


<<< done

